(set-logic QF_S)
(declare-fun var0 () String)
(declare-fun var1 () String)
(declare-fun var2 () String)
(declare-fun var3 () String)
(declare-fun var4 () String)
(declare-fun var5 () String)
(declare-fun var6 () String)
(declare-fun var7 () String)
(declare-fun var8 () String)
(declare-fun var9 () String)
(declare-fun var10 () String)
(declare-fun var11 () String)
(declare-fun var12 () String)
(declare-fun var13 () String)
(declare-fun var14 () String)
(declare-fun var15 () String)
(declare-fun var16 () String)
(declare-fun var17 () String)
(declare-fun var18 () String)
(declare-fun var19 () String)
(declare-fun var20 () String)
(declare-fun var21 () String)
(declare-fun var22 () String)
(declare-fun var23 () String)
(declare-fun var24 () String)
(declare-fun var25 () String)
(declare-fun var26 () String)
(declare-fun var27 () String)
(declare-fun var28 () String)
(declare-fun var29 () String)
(declare-fun var30 () String)
(declare-fun var31 () String)
(declare-fun var32 () String)
(declare-fun var33 () String)
(declare-fun var34 () String)
(declare-fun var35 () String)
(declare-fun var36 () String)
(declare-fun var37 () String)
(declare-fun var38 () String)
(declare-fun var39 () String)
(declare-fun var40 () String)
(declare-fun var41 () String)
(declare-fun var42 () String)
(declare-fun var43 () String)
(declare-fun var44 () String)
(declare-fun var45 () String)
(declare-fun var46 () String)
(declare-fun var47 () String)
(declare-fun var48 () String)
(declare-fun var49 () String)
(declare-fun var50 () String)
(declare-fun var51 () String)
(declare-fun var52 () String)
(declare-fun var53 () String)
(declare-fun var54 () String)
(declare-fun var55 () String)
(declare-fun var56 () String)
(declare-fun var57 () String)
(declare-fun var58 () String)
(declare-fun var59 () String)
(declare-fun var60 () String)
(assert (= var0 (Concat var1 var2)))
(assert (= var2 (Concat var3 var4)))
(assert (= var4 (Concat var5 var6)))
(assert (= var6 (Concat var7 var8)))
(assert (= var8 (Concat var9 var10)))
(assert (= var10 (Concat var11 var12)))
(assert (= var12 (Concat var13 var14)))
(assert (= var14 (Concat var15 var16)))
(assert (= var16 (Concat var17 var18)))
(assert (= var18 (Concat var19 var20)))
(assert (= var20 (Concat var21 var22)))
(assert (= var22 (Concat var23 var24)))
(assert (= var24 (Concat var25 var26)))
(assert (= var26 (Concat var27 var28)))
(assert (= var28 (Concat var29 var30)))
(assert (= var30 (Concat var31 var32)))
(assert (= var32 (Concat var33 var34)))
(assert (= var34 (Concat var35 var36)))
(assert (= var36 (Concat var37 var38)))
(assert (= var38 (Concat var39 var40)))
(assert (= var40 (Concat var41 var42)))
(assert (= var42 (Concat var43 var44)))
(assert (= var44 (Concat var45 var46)))
(assert (= var46 (Concat var47 var48)))
(assert (= var48 (Concat var49 var50)))
(assert (= var50 (Concat var51 var52)))
(assert (= var52 (Concat var53 var54)))
(assert (= var54 (Concat var55 var56)))
(assert (= var56 (Concat var57 var58)))
(assert (= var58 (Concat var59 var60)))
(assert (= var0 "solution"))
(assert (= "." (CharAt var8 787)))
(assert (= "#" (CharAt var31 808)))
(assert (= "g" (CharAt var45 770)))
(assert (= "J" (CharAt var54 351)))
(assert (= "4" (CharAt var19 227)))
(assert (= "4" (CharAt var6 427)))
(assert (= "b" (CharAt var54 761)))
(assert (= "K" (CharAt var24 515)))
(assert (= "t" (CharAt var50 215)))
(assert (= "k" (CharAt var35 980)))
(assert (= "%" (CharAt var24 332)))
(assert (= "9" (CharAt var9 351)))
(assert (= "." (CharAt var44 58)))
(assert (= "<" (CharAt var30 816)))
(assert (= "N" (CharAt var5 32)))
(assert (= "y" (CharAt var35 141)))
(assert (= "p" (CharAt var50 447)))
(assert (= "d" (CharAt var9 875)))
(assert (= "m" (CharAt var42 149)))
(assert (= "U" (CharAt var16 740)))
(assert (= "_" (CharAt var43 927)))
(assert (= "f" (CharAt var43 437)))
(assert (= "I" (CharAt var59 435)))
(assert (= "8" (CharAt var15 384)))
(assert (= "K" (CharAt var23 144)))
(assert (= "c" (CharAt var26 611)))
(assert (= "`" (CharAt var17 434)))
(assert (= "f" (CharAt var46 449)))
(assert (= "#" (CharAt var17 785)))
(assert (= "+" (CharAt var26 445)))
(assert (= "8" (CharAt var2 920)))
(assert (= "1" (CharAt var23 320)))
(assert (= "}" (CharAt var27 921)))
(assert (= "8" (CharAt var6 491)))
(assert (= "x" (CharAt var35 392)))
(assert (= "w" (CharAt var55 683)))
(assert (= "W" (CharAt var9 813)))
(assert (= "T" (CharAt var6 277)))
(assert (= "7" (CharAt var55 146)))
(assert (= "}" (CharAt var31 261)))
(assert (= "T" (CharAt var45 137)))
(assert (= "\\" (CharAt var54 759)))
(assert (= "\"" (CharAt var58 666)))
(assert (= "U" (CharAt var45 616)))
(assert (= "c" (CharAt var35 781)))
(assert (= "-" (CharAt var33 456)))
(assert (= "S" (CharAt var11 335)))
(assert (= "/" (CharAt var33 44)))
(assert (= "l" (CharAt var56 235)))
(assert (= "q" (CharAt var37 100)))
(assert (= "<" (CharAt var17 223)))
(assert (= "P" (CharAt var47 421)))
(assert (= "t" (CharAt var43 179)))
(assert (= "D" (CharAt var6 577)))
(assert (= "9" (CharAt var28 51)))
(assert (= "N" (CharAt var32 903)))
(assert (= "|" (CharAt var26 531)))
(assert (= "a" (CharAt var34 114)))
(assert (= "c" (CharAt var49 553)))
(assert (= "_" (CharAt var27 25)))
(assert (= "j" (CharAt var1 445)))
(assert (= "<" (CharAt var20 255)))
(assert (= "J" (CharAt var25 253)))
(assert (= "M" (CharAt var48 977)))
(assert (= "b" (CharAt var27 268)))
(assert (= "%" (CharAt var35 358)))
(assert (= "G" (CharAt var57 944)))
(assert (= "I" (CharAt var44 579)))
(assert (= "+" (CharAt var6 91)))
(assert (= "j" (CharAt var6 506)))
(assert (= "F" (CharAt var22 643)))
(assert (= "5" (CharAt var5 167)))
(assert (= "r" (CharAt var20 11)))
(assert (= "!" (CharAt var17 935)))
(assert (= "6" (CharAt var46 130)))
(assert (= "!" (CharAt var38 157)))
(assert (= "}" (CharAt var8 667)))
(assert (= "8" (CharAt var11 193)))
(assert (= "5" (CharAt var24 680)))
(assert (= "5" (CharAt var30 99)))
(assert (= ";" (CharAt var30 876)))
(assert (= "B" (CharAt var51 532)))
(assert (= "g" (CharAt var5 955)))
(assert (= "J" (CharAt var26 338)))
(assert (= "O" (CharAt var40 387)))
(assert (= "Q" (CharAt var10 826)))
(assert (= "b" (CharAt var16 513)))
(assert (= "N" (CharAt var29 830)))
(assert (= "*" (CharAt var15 711)))
(assert (= "r" (CharAt var14 912)))
(assert (= "l" (CharAt var59 833)))
(assert (= "\\" (CharAt var16 420)))
(assert (= "o" (CharAt var39 950)))
(assert (= "p" (CharAt var32 200)))
(assert (= "+" (CharAt var23 58)))
(assert (= "B" (CharAt var53 314)))
(assert (= "t" (CharAt var42 720)))
(assert (= "5" (CharAt var26 628)))
(assert (= "\"" (CharAt var2 436)))
(assert (= "3" (CharAt var28 839)))
(assert (= "e" (CharAt var32 165)))
(assert (= "e" (CharAt var28 803)))
(assert (= "F" (CharAt var39 180)))
(assert (= ">" (CharAt var16 451)))
(assert (= "g" (CharAt var24 254)))
(assert (= "0" (CharAt var41 113)))
(assert (= "\\" (CharAt var16 417)))
(assert (= "c" (CharAt var45 736)))
(assert (= "l" (CharAt var55 415)))
(assert (= "h" (CharAt var4 788)))
(assert (= "^" (CharAt var24 401)))
(assert (= "K" (CharAt var27 384)))
(assert (= "H" (CharAt var42 767)))
(assert (= "R" (CharAt var11 390)))
(assert (= "[" (CharAt var4 450)))
(assert (= "8" (CharAt var1 967)))
(assert (= "Q" (CharAt var53 772)))
(assert (= ";" (CharAt var49 416)))
(assert (= "C" (CharAt var12 641)))
(assert (= "3" (CharAt var51 844)))
(assert (= "3" (CharAt var57 227)))
(assert (= "s" (CharAt var52 145)))
(assert (= "x" (CharAt var19 323)))
(assert (= ":" (CharAt var30 132)))
(assert (= "N" (CharAt var52 582)))
(assert (= "O" (CharAt var39 49)))
(assert (= "i" (CharAt var51 398)))
(assert (= "P" (CharAt var37 617)))
(assert (= "O" (CharAt var43 577)))
(assert (= "P" (CharAt var58 946)))
(assert (= "I" (CharAt var31 254)))
(assert (= "8" (CharAt var49 586)))
(assert (= "Y" (CharAt var14 756)))
(assert (= "N" (CharAt var9 117)))
(assert (= "6" (CharAt var6 859)))
(assert (= "F" (CharAt var1 307)))
(assert (= "K" (CharAt var29 599)))
(assert (= "A" (CharAt var28 40)))
(assert (= "^" (CharAt var28 92)))
(assert (= "l" (CharAt var24 21)))
(assert (= "j" (CharAt var40 910)))
(assert (= "e" (CharAt var18 390)))
(assert (= "8" (CharAt var52 819)))
(assert (= "Q" (CharAt var32 829)))
(assert (= "x" (CharAt var33 538)))
(assert (= "p" (CharAt var15 519)))
(assert (= "4" (CharAt var39 91)))
(assert (= "V" (CharAt var0 930)))
(assert (= "Q" (CharAt var47 66)))
(assert (= "e" (CharAt var17 456)))
(assert (= "\\" (CharAt var8 483)))
(assert (= "{" (CharAt var27 808)))
(assert (= "L" (CharAt var32 710)))
(assert (= "*" (CharAt var5 283)))
(assert (= "H" (CharAt var17 281)))
(assert (= "T" (CharAt var7 537)))
(assert (= "8" (CharAt var43 690)))
(assert (= "n" (CharAt var60 351)))
(assert (= "y" (CharAt var37 167)))
(assert (= "r" (CharAt var4 628)))
(assert (= "f" (CharAt var12 359)))
(assert (= "q" (CharAt var59 331)))
(assert (= ";" (CharAt var36 917)))
(assert (= ";" (CharAt var36 693)))
(assert (= "C" (CharAt var7 782)))
(assert (= "/" (CharAt var38 105)))
(assert (= "J" (CharAt var16 844)))
(assert (= "e" (CharAt var40 491)))
(assert (= "b" (CharAt var21 619)))
(assert (= "e" (CharAt var28 330)))
(assert (= "I" (CharAt var33 46)))
(assert (= "E" (CharAt var51 962)))
(assert (= "&" (CharAt var18 526)))
(assert (= "m" (CharAt var48 118)))
(assert (= "+" (CharAt var18 875)))
(assert (= "M" (CharAt var40 477)))
(assert (= "P" (CharAt var21 562)))
(assert (= "|" (CharAt var58 977)))
(assert (= ">" (CharAt var48 344)))
(assert (= "q" (CharAt var9 543)))
(assert (= "T" (CharAt var54 982)))
(assert (= "r" (CharAt var4 32)))
(assert (= "|" (CharAt var56 566)))
(assert (= "|" (CharAt var57 260)))
(assert (= "Q" (CharAt var25 808)))
(assert (= "+" (CharAt var6 850)))
(assert (= "+" (CharAt var7 357)))
(assert (= "I" (CharAt var25 312)))
(assert (= "<" (CharAt var18 874)))
(assert (= "L" (CharAt var22 579)))
(assert (= "/" (CharAt var16 684)))
(assert (= "z" (CharAt var8 314)))
(assert (= "G" (CharAt var40 934)))
(assert (= "5" (CharAt var13 860)))
(assert (= "\"" (CharAt var47 851)))
(assert (= "R" (CharAt var48 242)))
(assert (= "O" (CharAt var31 238)))
(assert (= "D" (CharAt var22 173)))
(assert (= "#" (CharAt var59 686)))
(assert (= "`" (CharAt var13 699)))
(assert (= "u" (CharAt var40 947)))
(assert (= "2" (CharAt var29 522)))
(assert (= "-" (CharAt var10 895)))
(assert (= "O" (CharAt var1 310)))
(assert (= "y" (CharAt var14 113)))
(assert (= "h" (CharAt var55 584)))
(assert (= "m" (CharAt var4 58)))
(assert (= "&" (CharAt var47 634)))
(assert (= "d" (CharAt var46 644)))
(assert (= "/" (CharAt var13 536)))
(assert (= "K" (CharAt var49 613)))
(assert (= "y" (CharAt var49 12)))
(assert (= "S" (CharAt var9 215)))
(assert (= "}" (CharAt var51 24)))
(assert (= "-" (CharAt var14 793)))
(assert (= "T" (CharAt var20 805)))
(assert (= "b" (CharAt var47 280)))
(assert (= "3" (CharAt var51 641)))
(assert (= "*" (CharAt var23 60)))
(assert (= "*" (CharAt var57 180)))
(assert (= "S" (CharAt var55 937)))
(assert (= "|" (CharAt var7 841)))
(assert (= "<" (CharAt var49 890)))
(assert (= "{" (CharAt var30 656)))
(assert (= "0" (CharAt var54 868)))
(assert (= "m" (CharAt var14 486)))
(assert (= "K" (CharAt var33 387)))
(assert (= "-" (CharAt var34 337)))
(assert (= "m" (CharAt var17 98)))
(assert (= "!" (CharAt var24 592)))
(assert (= "9" (CharAt var19 985)))
(assert (= "\\" (CharAt var28 548)))
(assert (= "&" (CharAt var5 20)))
(assert (= "K" (CharAt var0 897)))
(assert (= "y" (CharAt var23 544)))
(assert (= "a" (CharAt var53 471)))
(assert (= "!" (CharAt var19 585)))
(assert (= "2" (CharAt var50 673)))
(assert (= "M" (CharAt var26 437)))
(assert (= "Y" (CharAt var17 800)))
(assert (= "j" (CharAt var54 908)))
(assert (= "!" (CharAt var8 808)))
(assert (= "0" (CharAt var22 126)))
(assert (= "2" (CharAt var5 158)))
(assert (= "R" (CharAt var26 927)))
(assert (= "\"" (CharAt var34 347)))
(assert (= "V" (CharAt var38 78)))
(assert (= "Q" (CharAt var30 218)))
(assert (= "8" (CharAt var40 789)))
(assert (= "9" (CharAt var11 236)))
(assert (= "R" (CharAt var38 484)))
(assert (= "@" (CharAt var26 286)))
(assert (= "i" (CharAt var35 405)))
(assert (= "s" (CharAt var42 291)))
(assert (= "(" (CharAt var50 11)))
(assert (= "^" (CharAt var48 841)))
(assert (= ";" (CharAt var34 853)))
(assert (= "B" (CharAt var44 262)))
(assert (= "+" (CharAt var6 339)))
(assert (= "7" (CharAt var18 121)))
(assert (= "Y" (CharAt var44 123)))
(assert (= "6" (CharAt var4 940)))
(assert (= "#" (CharAt var11 622)))
(assert (= "@" (CharAt var28 612)))
(assert (= "f" (CharAt var51 433)))
(assert (= "w" (CharAt var42 86)))
(assert (= "^" (CharAt var57 850)))
(assert (= ";" (CharAt var13 590)))
(assert (= "X" (CharAt var24 62)))
(assert (= "f" (CharAt var12 908)))
(assert (= "o" (CharAt var25 834)))
(assert (= "x" (CharAt var29 16)))
(assert (= "9" (CharAt var39 90)))
(assert (= ":" (CharAt var39 76)))
(assert (= "V" (CharAt var52 177)))
(assert (= ";" (CharAt var51 750)))
(assert (= "m" (CharAt var55 388)))
(assert (= "}" (CharAt var47 608)))
(assert (= "u" (CharAt var10 466)))
(assert (= "(" (CharAt var5 342)))
(assert (= "u" (CharAt var26 846)))
(assert (= "~" (CharAt var25 113)))
(assert (= "g" (CharAt var57 43)))
(assert (= "Y" (CharAt var60 839)))
(assert (= "v" (CharAt var57 980)))
(assert (= "g" (CharAt var15 976)))
(assert (= "p" (CharAt var6 493)))
(assert (= "V" (CharAt var30 662)))
(assert (= "Q" (CharAt var0 132)))
(assert (= "Y" (CharAt var13 315)))
(assert (= "q" (CharAt var23 861)))
(assert (= "D" (CharAt var7 430)))
(assert (= "I" (CharAt var22 963)))
(assert (= "e" (CharAt var0 314)))
(assert (= "v" (CharAt var43 378)))
(assert (= "k" (CharAt var49 801)))
(assert (= "H" (CharAt var58 90)))
(assert (= "3" (CharAt var14 151)))
(assert (= "8" (CharAt var20 45)))
(assert (= "C" (CharAt var23 851)))
(assert (= "l" (CharAt var48 113)))
(assert (= "L" (CharAt var38 627)))
(assert (= "%" (CharAt var11 252)))
(assert (= "W" (CharAt var51 298)))
(assert (= "W" (CharAt var44 461)))
(assert (= "*" (CharAt var53 942)))
(assert (= "D" (CharAt var8 622)))
(assert (= "{" (CharAt var6 58)))
(assert (= "J" (CharAt var60 201)))
(assert (= "`" (CharAt var7 661)))
(assert (= "2" (CharAt var35 602)))
(assert (= "8" (CharAt var58 710)))
(assert (= "o" (CharAt var36 761)))
(assert (= ";" (CharAt var25 621)))
(assert (= ")" (CharAt var42 355)))
(assert (= "C" (CharAt var2 785)))
(assert (= "3" (CharAt var26 126)))
(assert (= "*" (CharAt var28 369)))
(assert (= "?" (CharAt var58 923)))
(assert (= "#" (CharAt var60 418)))
(assert (= "U" (CharAt var45 714)))
(assert (= "a" (CharAt var10 783)))
(assert (= "u" (CharAt var26 949)))
(assert (= ")" (CharAt var1 667)))
(assert (= "~" (CharAt var29 289)))
(assert (= "W" (CharAt var59 814)))
(assert (= "^" (CharAt var29 613)))
(assert (= "7" (CharAt var45 235)))
(assert (= "t" (CharAt var27 235)))
(assert (= "\"" (CharAt var30 971)))
(assert (= "|" (CharAt var4 129)))
(assert (= "s" (CharAt var1 502)))
(assert (= "l" (CharAt var43 300)))
(assert (= "w" (CharAt var23 444)))
(assert (= "H" (CharAt var2 858)))
(assert (= "%" (CharAt var52 737)))
(assert (= "," (CharAt var0 779)))
(assert (= "A" (CharAt var55 55)))
(assert (= "U" (CharAt var60 96)))
(assert (= "D" (CharAt var58 310)))
(assert (= "8" (CharAt var34 810)))
(assert (= "p" (CharAt var48 137)))
(assert (= "o" (CharAt var47 908)))
(assert (= "6" (CharAt var31 372)))
(assert (= "I" (CharAt var52 886)))
(assert (= "V" (CharAt var49 187)))
(assert (= "(" (CharAt var56 684)))
(assert (= "P" (CharAt var27 648)))
(assert (= ">" (CharAt var15 99)))
(assert (= "G" (CharAt var19 329)))
(assert (= "-" (CharAt var51 17)))
(assert (= "q" (CharAt var32 769)))
(assert (= "?" (CharAt var45 718)))
(assert (= "7" (CharAt var58 59)))
(assert (= "0" (CharAt var15 553)))
(assert (= "T" (CharAt var1 134)))
(assert (= "=" (CharAt var18 139)))
(assert (= "Z" (CharAt var8 185)))
(assert (= "L" (CharAt var23 100)))
(assert (= "Q" (CharAt var7 43)))
(assert (= "T" (CharAt var42 242)))
(assert (= "." (CharAt var17 861)))
(assert (= "'" (CharAt var43 734)))
(assert (= "Z" (CharAt var27 334)))
(assert (= "(" (CharAt var27 201)))
(assert (= "e" (CharAt var27 404)))
(assert (= "m" (CharAt var32 31)))
(assert (= "g" (CharAt var22 23)))
(assert (= "x" (CharAt var10 106)))
(assert (= "k" (CharAt var44 28)))
(assert (= "u" (CharAt var56 289)))
(assert (= "+" (CharAt var44 336)))
(assert (= "." (CharAt var35 820)))
(assert (= "I" (CharAt var15 923)))
(assert (= "'" (CharAt var23 491)))
(assert (= "?" (CharAt var1 633)))
(assert (= "G" (CharAt var10 209)))
(assert (= "V" (CharAt var38 498)))
(assert (= "3" (CharAt var45 821)))
(assert (= "`" (CharAt var11 635)))
(assert (= "}" (CharAt var25 14)))
(assert (= "I" (CharAt var0 827)))
(assert (= "P" (CharAt var45 749)))
(assert (= "!" (CharAt var32 241)))
(assert (= "6" (CharAt var53 540)))
(assert (= "Z" (CharAt var10 399)))
(assert (= "F" (CharAt var31 979)))
(assert (= "!" (CharAt var20 374)))
(assert (= "_" (CharAt var42 925)))
(assert (= "P" (CharAt var46 223)))
(assert (= "O" (CharAt var5 721)))
(assert (= "B" (CharAt var44 680)))
(assert (= "N" (CharAt var13 765)))
(assert (= "r" (CharAt var15 848)))
(assert (= "Y" (CharAt var28 445)))
(assert (= "6" (CharAt var36 317)))
(assert (= "." (CharAt var59 20)))
(assert (= "1" (CharAt var27 577)))
(assert (= "|" (CharAt var59 751)))
(assert (= "p" (CharAt var15 850)))
(assert (= "$" (CharAt var27 579)))
(assert (= "'" (CharAt var59 694)))
(assert (= "I" (CharAt var0 218)))
(assert (= "I" (CharAt var18 701)))
(assert (= "C" (CharAt var6 984)))
(assert (= "7" (CharAt var47 189)))
(assert (= ">" (CharAt var12 273)))
(assert (= "h" (CharAt var38 46)))
(assert (= "M" (CharAt var39 614)))
(assert (= "f" (CharAt var6 623)))
(assert (= ")" (CharAt var45 877)))
(assert (= "J" (CharAt var5 153)))
(assert (= "n" (CharAt var34 636)))
(assert (= "." (CharAt var3 876)))
(assert (= "H" (CharAt var52 354)))
(assert (= "?" (CharAt var23 589)))
(assert (= "T" (CharAt var55 744)))
(assert (= "/" (CharAt var1 132)))
(assert (= "T" (CharAt var9 825)))
(assert (= "Y" (CharAt var33 545)))
(assert (= "%" (CharAt var17 66)))
(assert (= "D" (CharAt var49 357)))
(assert (= "1" (CharAt var56 533)))
(assert (= "M" (CharAt var12 182)))
(assert (= "M" (CharAt var52 612)))
(assert (= "U" (CharAt var33 898)))
(assert (= "P" (CharAt var36 309)))
(assert (= "O" (CharAt var7 86)))
(assert (= "_" (CharAt var27 542)))
(assert (= "M" (CharAt var57 237)))
(assert (= "$" (CharAt var51 266)))
(assert (= "_" (CharAt var11 787)))
(assert (= "=" (CharAt var5 748)))
(assert (= "(" (CharAt var7 134)))
(assert (= "<" (CharAt var43 374)))
(assert (= "S" (CharAt var12 259)))
(assert (= "Q" (CharAt var41 11)))
(assert (= ")" (CharAt var47 88)))
(assert (= "f" (CharAt var47 267)))
(assert (= "1" (CharAt var8 561)))
(assert (= "!" (CharAt var38 630)))
(assert (= "k" (CharAt var28 78)))
(assert (= "n" (CharAt var52 519)))
(assert (= "(" (CharAt var2 460)))
(assert (= "Y" (CharAt var5 142)))
(assert (= "v" (CharAt var55 642)))
(assert (= ":" (CharAt var51 223)))
(assert (= ";" (CharAt var5 230)))
(assert (= "#" (CharAt var8 889)))
(assert (= "+" (CharAt var20 346)))
(assert (= "^" (CharAt var59 796)))
(assert (= ")" (CharAt var7 137)))
(assert (= "/" (CharAt var20 540)))
(assert (= "_" (CharAt var39 150)))
(assert (= "<" (CharAt var54 911)))
(assert (= "{" (CharAt var15 811)))
(assert (= "t" (CharAt var39 424)))
(assert (= "v" (CharAt var19 603)))
(assert (= "H" (CharAt var36 529)))
(assert (= "K" (CharAt var26 44)))
(assert (= "!" (CharAt var15 132)))
(assert (= "m" (CharAt var42 330)))
(assert (= "5" (CharAt var57 296)))
(assert (= "Q" (CharAt var29 467)))
(assert (= "t" (CharAt var7 336)))
(assert (= "L" (CharAt var46 456)))
(assert (= "R" (CharAt var24 892)))
(assert (= "3" (CharAt var53 681)))
(assert (= "m" (CharAt var35 581)))
(assert (= "!" (CharAt var49 514)))
(assert (= "3" (CharAt var13 413)))
(assert (= "O" (CharAt var11 968)))
(assert (= "?" (CharAt var45 241)))
(assert (= "I" (CharAt var10 331)))
(assert (= "s" (CharAt var49 718)))
(assert (= "I" (CharAt var44 878)))
(assert (= "2" (CharAt var16 95)))
(assert (= "8" (CharAt var59 167)))
(assert (= "[" (CharAt var17 21)))
(assert (= "q" (CharAt var23 642)))
(assert (= "," (CharAt var1 928)))
(assert (= "d" (CharAt var27 100)))
(assert (= ";" (CharAt var4 459)))
(assert (= "," (CharAt var38 601)))
(assert (= "V" (CharAt var26 519)))
(assert (= "|" (CharAt var20 817)))
(assert (= "Y" (CharAt var51 720)))
(assert (= "=" (CharAt var14 757)))
(assert (= "F" (CharAt var56 231)))
(assert (= "<" (CharAt var6 324)))
(assert (= "<" (CharAt var43 49)))
(assert (= "r" (CharAt var1 515)))
(assert (= "Z" (CharAt var9 828)))
(assert (= "E" (CharAt var8 773)))
(assert (= "x" (CharAt var6 707)))
(assert (= "G" (CharAt var41 334)))
(assert (= "O" (CharAt var22 964)))
(assert (= "G" (CharAt var39 622)))
(assert (= "b" (CharAt var55 467)))
(assert (= "N" (CharAt var35 211)))
(assert (= "s" (CharAt var35 598)))
(assert (= "=" (CharAt var15 391)))
(assert (= "$" (CharAt var15 492)))
(assert (= "1" (CharAt var51 752)))
(assert (= "K" (CharAt var36 336)))
(assert (= "G" (CharAt var37 906)))
(assert (= "Y" (CharAt var7 88)))
(assert (= "?" (CharAt var54 236)))
(assert (= "R" (CharAt var11 812)))
(assert (= "a" (CharAt var7 659)))
(assert (= "p" (CharAt var2 317)))
(assert (= "A" (CharAt var23 809)))
(assert (= "Y" (CharAt var5 799)))
(assert (= "\"" (CharAt var44 31)))
(assert (= "!" (CharAt var11 41)))
(assert (= "\"" (CharAt var32 313)))
(assert (= "v" (CharAt var33 713)))
(assert (= "-" (CharAt var55 990)))
(assert (= "V" (CharAt var44 425)))
(assert (= "'" (CharAt var12 221)))
(assert (= ">" (CharAt var52 749)))
(assert (= "+" (CharAt var9 342)))
(assert (= "u" (CharAt var23 469)))
(assert (= "I" (CharAt var5 66)))
(assert (= "n" (CharAt var28 737)))
(assert (= "w" (CharAt var17 29)))
(assert (= "o" (CharAt var21 16)))
(assert (= "$" (CharAt var22 52)))
(assert (= "2" (CharAt var23 143)))
(assert (= ">" (CharAt var48 575)))
(assert (= "x" (CharAt var13 673)))
(assert (= "(" (CharAt var32 511)))
(assert (= "I" (CharAt var46 704)))
(assert (= "W" (CharAt var28 208)))
(assert (= "D" (CharAt var1 666)))
(assert (= "n" (CharAt var24 417)))
(assert (= "|" (CharAt var53 458)))
(assert (= "9" (CharAt var33 330)))
(assert (= "<" (CharAt var23 398)))
(assert (= "%" (CharAt var33 692)))
(assert (= "x" (CharAt var16 958)))
(assert (= "7" (CharAt var49 157)))
(assert (= "S" (CharAt var6 689)))
(assert (= "x" (CharAt var53 427)))
(assert (= "$" (CharAt var31 685)))
(assert (= "T" (CharAt var47 798)))
(assert (= "A" (CharAt var53 779)))
(assert (= ";" (CharAt var28 492)))
(assert (= "*" (CharAt var33 287)))
(assert (= "1" (CharAt var47 696)))
(assert (= "T" (CharAt var29 810)))
(assert (= "6" (CharAt var40 618)))
(assert (= "<" (CharAt var28 809)))
(assert (= "]" (CharAt var25 906)))
(assert (= "g" (CharAt var27 7)))
(assert (= "&" (CharAt var24 350)))
(assert (= "c" (CharAt var50 506)))
(assert (= "g" (CharAt var60 131)))
(assert (= "6" (CharAt var36 668)))
(assert (= "Y" (CharAt var42 772)))
(assert (= ")" (CharAt var23 344)))
(assert (= "r" (CharAt var10 429)))
(assert (= "k" (CharAt var2 284)))
(assert (= "2" (CharAt var53 753)))
(assert (= "F" (CharAt var46 119)))
(assert (= "p" (CharAt var41 36)))
(assert (= "p" (CharAt var35 592)))
(assert (= "7" (CharAt var25 690)))
(assert (= "\"" (CharAt var19 872)))
(assert (= "N" (CharAt var32 14)))
(assert (= "2" (CharAt var2 420)))
(assert (= "L" (CharAt var3 432)))
(assert (= "9" (CharAt var6 869)))
(assert (= "!" (CharAt var6 268)))
(assert (= "'" (CharAt var5 308)))
(assert (= "o" (CharAt var39 14)))
(assert (= "I" (CharAt var49 407)))
(assert (= "u" (CharAt var9 485)))
(assert (= ">" (CharAt var3 77)))
(assert (= "\\" (CharAt var38 700)))
(assert (= "D" (CharAt var48 216)))
(assert (= "1" (CharAt var37 344)))
(assert (= "f" (CharAt var41 750)))
(assert (= "N" (CharAt var23 232)))
(assert (= "(" (CharAt var0 421)))
(assert (= "m" (CharAt var56 216)))
(assert (= "f" (CharAt var7 360)))
(assert (= "/" (CharAt var49 344)))
(assert (= "R" (CharAt var11 428)))
(assert (= "," (CharAt var19 202)))
(assert (= "e" (CharAt var42 343)))
(assert (= "y" (CharAt var34 248)))
(assert (= "1" (CharAt var43 560)))
(assert (= "n" (CharAt var38 703)))
(assert (= "h" (CharAt var46 289)))
(assert (= "L" (CharAt var58 745)))
(assert (= "E" (CharAt var45 924)))
(assert (= "," (CharAt var46 492)))
(assert (= "'" (CharAt var37 316)))
(assert (= "A" (CharAt var51 667)))
(assert (= "s" (CharAt var40 316)))
(assert (= "u" (CharAt var31 623)))
(assert (= "#" (CharAt var33 549)))
(assert (= "W" (CharAt var30 359)))
(assert (= "#" (CharAt var4 661)))
(assert (= "k" (CharAt var49 305)))
(assert (= "U" (CharAt var55 222)))
(assert (= "b" (CharAt var51 366)))
(assert (= "h" (CharAt var34 774)))
(assert (= "s" (CharAt var31 921)))
(assert (= "E" (CharAt var29 897)))
(assert (= "B" (CharAt var40 829)))
(assert (= "i" (CharAt var10 991)))
(assert (= "P" (CharAt var56 750)))
(assert (= "Q" (CharAt var0 875)))
(assert (= "b" (CharAt var50 381)))
(assert (= "P" (CharAt var33 577)))
(assert (= "$" (CharAt var46 44)))
(assert (= "m" (CharAt var19 623)))
(assert (= "k" (CharAt var49 388)))
(assert (= "f" (CharAt var29 556)))
(assert (= "(" (CharAt var50 695)))
(assert (= "m" (CharAt var7 239)))
(assert (= "N" (CharAt var28 676)))
(assert (= "N" (CharAt var37 793)))
(assert (= "V" (CharAt var19 843)))
(assert (= "=" (CharAt var36 0)))
(assert (= "^" (CharAt var54 931)))
(assert (= "s" (CharAt var52 832)))
(assert (= "N" (CharAt var46 799)))
(assert (= "W" (CharAt var55 633)))
(assert (= "6" (CharAt var21 878)))
(assert (= "7" (CharAt var26 267)))
(assert (= "+" (CharAt var52 883)))
(assert (= "+" (CharAt var49 704)))
(assert (= "I" (CharAt var9 694)))
(assert (= "\"" (CharAt var45 373)))
(assert (= "j" (CharAt var15 845)))
(assert (= "Y" (CharAt var14 992)))
(assert (= "g" (CharAt var38 252)))
(assert (= "(" (CharAt var42 825)))
(assert (= "[" (CharAt var23 140)))
(assert (= "0" (CharAt var7 640)))
(assert (= ";" (CharAt var49 317)))
(assert (= "(" (CharAt var32 132)))
(assert (= "W" (CharAt var3 910)))
(assert (= "6" (CharAt var22 977)))
(assert (= "\\" (CharAt var32 592)))
(assert (= "^" (CharAt var7 493)))
(assert (= ":" (CharAt var10 290)))
(assert (= "!" (CharAt var18 405)))
(assert (= "{" (CharAt var10 904)))
(assert (= "D" (CharAt var48 172)))
(assert (= "$" (CharAt var32 57)))
(assert (= "#" (CharAt var52 130)))
(assert (= "m" (CharAt var29 499)))
(assert (= "," (CharAt var58 517)))
(assert (= "n" (CharAt var28 664)))
(assert (= "7" (CharAt var16 47)))
(assert (= "3" (CharAt var31 586)))
(assert (= "2" (CharAt var43 631)))
(assert (= "I" (CharAt var11 967)))
(assert (= "*" (CharAt var49 150)))
(assert (= "Y" (CharAt var57 461)))
(assert (= "M" (CharAt var32 265)))
(assert (= "e" (CharAt var0 160)))
(assert (= "{" (CharAt var11 882)))
(assert (= "N" (CharAt var10 404)))
(assert (= "E" (CharAt var21 909)))
(assert (= "z" (CharAt var38 650)))
(assert (= "%" (CharAt var58 439)))
(assert (= "n" (CharAt var17 348)))
(assert (= "2" (CharAt var49 539)))
(assert (= ")" (CharAt var8 85)))
(assert (= "C" (CharAt var30 371)))
(assert (= "_" (CharAt var14 58)))
(assert (= "t" (CharAt var55 409)))
(assert (= "q" (CharAt var24 43)))
(assert (= "r" (CharAt var45 520)))
(assert (= "i" (CharAt var14 437)))
(assert (= "S" (CharAt var34 457)))
(check-sat)
(get-model)